p tw 70 9451 2 
1 3 
1 4 
1 5 
1 6 
1 7 
1 8 
1 9 
1 10 
1 11 
1 12 
1 13 
1 14 
1 15 
1 16 
1 17 
1 18 
1 19 
1 20 
1 21 
1 22 
1 23 
1 24 
1 25 
1 26 
1 27 
1 28 
2 3 
2 4 
2 5 
2 6 
2 7 
2 8 
2 9 
2 10 
2 11 
2 15 
2 20 
2 26 
2 29 
2 30 
2 31 
2 32 
2 33 
2 34 
2 35 
2 41 
2 46 
2 51 
2 54 
2 62 
2 65 
2 67 
3 4 
3 5 
3 6 
3 7 
3 8 
3 9 
3 10 
3 12 
3 14 
3 21 
3 23 
3 29 
3 30 
3 36 
3 37 
3 38 
3 39 
3 40 
3 41 
3 42 
3 48 
3 49 
3 50 
3 51 
3 52 
4 5 
4 6 
4 7 
4 8 
4 9 
4 10 
4 13 
4 19 
4 22 
4 25 
4 29 
4 33 
4 41 
4 42 
4 43 
4 44 
4 45 
4 46 
4 47 
4 52 
4 53 
4 59 
4 68 
4 70 
5 6 
5 7 
5 8 
5 9 
5 10 
5 13 
5 16 
5 22 
5 24 
5 31 
5 34 
5 36 
5 40 
5 48 
5 50 
5 53 
5 54 
5 55 
5 56 
5 59 
5 64 
5 65 
5 66 
6 7 
6 8 
6 9 
6 10 
6 15 
6 17 
6 20 
6 28 
6 35 
6 36 
6 37 
6 43 
6 44 
6 48 
6 52 
6 57 
6 58 
6 59 
6 60 
6 64 
6 67 
6 69 
7 8 
7 9 
7 10 
7 16 
7 19 
7 24 
7 25 
7 30 
7 31 
7 38 
7 39 
7 44 
7 46 
7 49 
7 57 
7 60 
7 61 
7 62 
7 63 
7 66 
7 69 
8 9 
8 10 
8 11 
8 17 
8 26 
8 28 
8 32 
8 37 
8 38 
8 45 
8 47 
8 50 
8 51 
8 53 
8 56 
8 58 
8 61 
8 63 
8 66 
8 70 
9 10 
9 12 
9 18 
9 23 
9 27 
9 33 
9 35 
9 39 
9 42 
9 47 
9 54 
9 55 
9 57 
9 58 
9 61 
9 63 
9 64 
9 65 
9 68 
10 14 
10 18 
10 21 
10 27 
10 32 
10 34 
10 40 
10 43 
10 45 
10 49 
10 55 
10 56 
10 60 
10 62 
10 67 
10 68 
10 69 
10 70 
11 12 
11 13 
11 14 
11 15 
11 16 
11 17 
11 18 
11 19 
11 20 
11 28 
11 29 
11 30 
11 31 
11 32 
11 33 
11 34 
11 35 
11 38 
11 47 
11 51 
11 56 
11 58 
11 66 
11 70 
12 13 
12 14 
12 15 
12 16 
12 17 
12 18 
12 19 
12 21 
12 23 
12 29 
12 35 
12 36 
12 37 
12 38 
12 39 
12 40 
12 41 
12 47 
12 55 
12 57 
12 63 
12 65 
12 68 
13 14 
13 15 
13 16 
13 17 
13 18 
13 19 
13 22 
13 24 
13 29 
13 31 
13 36 
13 42 
13 43 
13 44 
13 45 
13 46 
13 47 
13 48 
13 53 
13 54 
13 55 
13 56 
14 15 
14 16 
14 17 
14 18 
14 19 
14 23 
14 27 
14 30 
14 32 
14 40 
14 42 
14 43 
14 48 
14 49 
14 50 
14 51 
14 52 
14 56 
14 62 
14 68 
14 69 
15 16 
15 17 
15 18 
15 19 
15 20 
15 26 
15 37 
15 41 
15 43 
15 46 
15 48 
15 51 
15 54 
15 57 
15 58 
15 59 
15 60 
15 62 
15 65 
15 67 
16 17 
16 18 
16 19 
16 22 
16 25 
16 31 
16 34 
16 38 
16 40 
16 44 
16 49 
16 50 
16 57 
16 59 
16 61 
16 62 
16 64 
16 65 
16 66 
17 18 
17 19 
17 26 
17 28 
17 32 
17 35 
17 36 
17 37 
17 44 
17 45 
17 50 
17 52 
17 53 
17 61 
17 63 
17 64 
17 67 
17 69 
18 19 
18 21 
18 27 
18 33 
18 34 
18 39 
18 42 
18 45 
18 49 
18 54 
18 55 
18 58 
18 60 
18 61 
18 64 
18 67 
18 70 
19 24 
19 25 
19 30 
19 33 
19 39 
19 41 
19 46 
19 52 
19 53 
19 59 
19 60 
19 63 
19 66 
19 68 
19 69 
19 70 
20 21 
20 22 
20 23 
20 24 
20 25 
20 26 
20 27 
20 28 
20 29 
20 30 
20 31 
20 32 
20 33 
20 34 
20 35 
20 37 
20 43 
20 48 
20 57 
20 58 
20 59 
20 60 
21 22 
21 23 
21 24 
21 25 
21 26 
21 27 
21 28 
21 29 
21 34 
21 36 
21 37 
21 38 
21 39 
21 40 
21 41 
21 45 
21 49 
21 55 
21 60 
21 67 
21 70 
22 23 
22 24 
22 25 
22 26 
22 27 
22 28 
22 29 
22 34 
22 40 
22 42 
22 43 
22 44 
22 45 
22 46 
22 47 
22 50 
22 59 
22 64 
22 65 
22 66 
23 24 
23 25 
23 26 
23 27 
23 28 
23 30 
23 35 
23 42 
23 47 
23 48 
23 49 
23 50 
23 51 
23 52 
23 55 
23 57 
23 63 
23 65 
23 68 
24 25 
24 26 
24 27 
24 28 
24 30 
24 31 
24 36 
24 39 
24 46 
24 48 
24 53 
24 54 
24 55 
24 56 
24 60 
24 63 
24 66 
24 69 
25 26 
25 27 
25 28 
25 31 
25 33 
25 38 
25 41 
25 44 
25 49 
25 52 
25 53 
25 57 
25 59 
25 61 
25 62 
25 68 
25 70 
26 27 
26 28 
26 32 
26 37 
26 41 
26 45 
26 46 
26 50 
26 51 
26 53 
26 54 
26 61 
26 62 
26 63 
26 65 
26 67 
27 28 
27 32 
27 33 
27 39 
27 40 
27 42 
27 43 
27 54 
27 56 
27 58 
27 61 
27 62 
27 64 
27 68 
27 69 
28 35 
28 36 
28 38 
28 44 
28 47 
28 51 
28 52 
28 56 
28 58 
28 64 
28 66 
28 67 
28 69 
28 70 
29 30 
29 31 
29 32 
29 33 
29 34 
29 35 
29 36 
29 37 
29 38 
29 39 
29 40 
29 41 
29 42 
29 43 
29 44 
29 45 
29 46 
29 47 
30 31 
30 32 
30 33 
30 34 
30 35 
30 39 
30 42 
30 46 
30 48 
30 49 
30 50 
30 51 
30 52 
30 60 
30 63 
30 66 
30 69 
31 32 
31 33 
31 34 
31 35 
31 36 
31 38 
31 44 
31 48 
31 49 
31 53 
31 54 
31 55 
31 56 
31 57 
31 61 
31 62 
32 33 
32 34 
32 35 
32 37 
32 40 
32 43 
32 45 
32 50 
32 53 
32 56 
32 61 
32 62 
32 63 
32 68 
32 69 
33 34 
33 35 
33 39 
33 41 
33 42 
33 52 
33 53 
33 54 
33 58 
33 59 
33 61 
33 64 
33 68 
33 70 
34 35 
34 40 
34 45 
34 49 
34 50 
34 55 
34 59 
34 60 
34 64 
34 65 
34 66 
34 67 
34 70 
35 36 
35 44 
35 47 
35 52 
35 55 
35 57 
35 63 
35 64 
35 65 
35 67 
35 68 
35 69 
36 37 
36 38 
36 39 
36 40 
36 41 
36 44 
36 48 
36 52 
36 53 
36 54 
36 55 
36 56 
36 64 
36 67 
36 69 
37 38 
37 39 
37 40 
37 41 
37 43 
37 45 
37 48 
37 50 
37 53 
37 57 
37 58 
37 59 
37 60 
37 61 
37 63 
38 39 
38 40 
38 41 
38 44 
38 47 
38 49 
38 51 
38 56 
38 57 
38 58 
38 61 
38 62 
38 66 
38 70 
39 40 
39 41 
39 42 
39 46 
39 54 
39 58 
39 60 
39 61 
39 63 
39 64 
39 66 
39 69 
40 41 
40 43 
40 50 
40 56 
40 59 
40 62 
40 64 
40 65 
40 66 
40 68 
40 69 
41 46 
41 51 
41 52 
41 53 
41 54 
41 59 
41 62 
41 65 
41 67 
41 68 
41 70 
42 43 
42 44 
42 45 
42 46 
42 47 
42 48 
42 49 
42 50 
42 51 
42 52 
42 54 
42 58 
42 61 
42 64 
43 44 
43 45 
43 46 
43 47 
43 48 
43 56 
43 57 
43 58 
43 59 
43 60 
43 62 
43 68 
43 69 
44 45 
44 46 
44 47 
44 49 
44 52 
44 57 
44 61 
44 62 
44 64 
44 67 
44 69 
45 46 
45 47 
45 49 
45 50 
45 53 
45 55 
45 60 
45 61 
45 63 
45 67 
45 70 
46 47 
46 51 
46 54 
46 60 
46 62 
46 63 
46 65 
46 66 
46 67 
46 69 
47 51 
47 55 
47 56 
47 57 
47 58 
47 63 
47 65 
47 66 
47 68 
47 70 
48 49 
48 50 
48 51 
48 52 
48 53 
48 54 
48 55 
48 56 
48 57 
48 58 
48 59 
48 60 
49 50 
49 51 
49 52 
49 55 
49 57 
49 60 
49 61 
49 62 
49 67 
49 70 
50 51 
50 52 
50 53 
50 59 
50 61 
50 63 
50 64 
50 65 
50 66 
51 52 
51 54 
51 56 
51 58 
51 62 
51 65 
51 66 
51 67 
51 70 
52 53 
52 59 
52 64 
52 67 
52 68 
52 69 
52 70 
53 54 
53 55 
53 56 
53 59 
53 61 
53 63 
53 68 
53 70 
54 55 
54 56 
54 58 
54 61 
54 62 
54 64 
54 65 
54 67 
55 56 
55 57 
55 60 
55 63 
55 65 
55 67 
55 68 
55 70 
56 58 
56 62 
56 66 
56 68 
56 69 
56 70 
57 58 
57 59 
57 60 
57 61 
57 62 
57 63 
57 65 
57 68 
58 59 
58 60 
58 61 
58 64 
58 66 
58 70 
59 60 
59 64 
59 65 
59 66 
59 68 
59 70 
60 63 
60 66 
60 67 
60 69 
60 70 
61 62 
61 63 
61 64 
62 65 
62 67 
62 68 
62 69 
63 65 
63 66 
63 68 
63 69 
64 65 
64 66 
64 67 
64 69 
65 66 
65 67 
65 68 
66 69 
66 70 
67 69 
67 70 
68 69 
68 70 
